// --- Conjuntos ---
I = { "AAPL", "AMZN", "BTC-USD", "ES=F", "EURUSD=X", "GOOGL", "MSFT", "NVDA", "SPY", "VTSAX" };

H = 7;

D = { "2025-04-30", "2025-05-31", "2025-06-30", "2025-07-31", "2025-08-31", "2025-09-30", "2025-10-31" };

C = { "Acciones", "Cripto", "Divisa", "ETF", "Fondo", "Otros" };

// --- Parámetros ---
r = [
  [-0.003836, -0.000504, 0.002836, -0.000789, 0.000810, -0.004128, -0.003594]
  [0.008876, 0.015261, 0.017665, 0.021607, 0.013898, 0.006841, 0.007033]
  [0.158040, 0.170975, 0.158838, 0.155072, 0.135202, 0.125793, 0.120150]
  [-0.003776, -0.000277, -0.001408, 0.000006, -0.001023, -0.004081, -0.003610]
  [-0.018504, -0.019030, -0.018779, -0.017704, -0.016654, -0.013180, -0.012417]
  [0.031653, 0.028996, 0.034561, 0.037153, 0.025001, 0.018053, 0.017912]
  [-0.025843, -0.021641, -0.020620, -0.020300, -0.021579, -0.023549, -0.021049]
  [0.117038, 0.112497, 0.104033, 0.091437, 0.088375, 0.075133, 0.071605]
  [-0.000387, 0.003214, 0.001578, 0.003095, 0.002147, -0.001325, -0.001076]
  [0.001684, 0.005560, 0.003414, 0.005064, 0.003613, -0.000135, 0.000110]
];

c_buy = [0.001000, 0.000500, 0.001500, 0.000200, 0.002500, 0.001500, 0.001000, 0.001000, 0.001000, 0.001000];

c_sell = [0.001500, 0.001000, 0.002000, 0.000300, 0.003000, 0.002000, 0.001500, 0.001500, 0.001500, 0.001500];

g = [
  [1, 0, 0, 0, 0, 0]
  [1, 0, 0, 0, 0, 0]
  [0, 1, 0, 0, 0, 0]
  [0, 0, 0, 0, 0, 1]
  [0, 0, 1, 0, 0, 0]
  [1, 0, 0, 0, 0, 0]
  [1, 0, 0, 0, 0, 0]
  [1, 0, 0, 0, 0, 0]
  [0, 0, 0, 1, 0, 0]
  [0, 0, 0, 0, 1, 0]
];

W0 = 100;

L = [0.100000, 0.100000, 0.100000, 0.100000, 0.100000, 0.100000];

U = [0.750000, 0.750000, 0.750000, 0.750000, 0.750000, 0.750000];

X_min = [0.000000, 0.000000, 0.000000, 0.000000, 0.000000, 0.000000, 0.000000, 0.000000, 0.000000, 0.000000];

X_max = [0.750000, 0.750000, 0.750000, 0.750000, 0.750000, 0.750000, 0.750000, 0.750000, 0.750000, 0.750000];

